Gurobi Optimizer version 9.1.0 build v9.1.0rc0 (linux64)
Thread count: 8 physical cores, 16 logical processors, using up to 16 threads
Optimize a model with 31908 rows, 30240 columns and 165570 nonzeros
Model fingerprint: 0xe2291913
Variable types: 0 continuous, 30240 integer (30240 binary)
Coefficient statistics:
  Matrix range     [1e+00, 1e+00]
  Objective range  [1e+01, 3e+04]
  Bounds range     [1e+00, 1e+00]
  RHS range        [1e+00, 2e+02]
Presolve added 0 rows and 470 columns
Presolve removed 30 rows and 0 columns
Presolve time: 0.56s
Presolved: 31878 rows, 30710 columns, 137010 nonzeros
Variable types: 0 continuous, 30710 integer (30710 binary)
Found heuristic solution: objective 354135.00000

Concurrent LP optimizer: primal simplex, dual simplex, and barrier
Showing barrier log only...

Root barrier log...

Ordering time: 0.12s

Barrier statistics:
 Dense cols : 120
 AA' NZ     : 1.090e+05
 Factor NZ  : 2.674e+05 (roughly 30 MBytes of memory)
 Factor Ops : 1.453e+07 (less than 1 second per iteration)
 Threads    : 6

                  Objective                Residual
Iter       Primal          Dual         Primal    Dual     Compl     Time
   0   2.55318784e+07 -2.17102100e+07  2.00e+02 3.18e+01  7.56e+03     1s
   1   5.41518216e+05 -2.97170893e+07  2.14e+00 2.77e+03  3.89e+02     1s
   2   4.00428778e+05 -1.15620707e+07  4.55e-01 9.88e+02  1.37e+02     1s
   3   3.82660608e+05 -8.80066595e+05  2.44e-01 9.96e+01  1.42e+01     1s
   4   3.73780186e+05  5.28201137e+04  1.65e-01 2.09e+01  3.48e+00     1s
   5   3.64100099e+05  1.87158825e+05  1.17e-01 9.70e+00  1.88e+00     2s
   6   3.57806366e+05  2.47910096e+05  9.51e-02 5.61e+00  1.15e+00     2s
   7   3.51148884e+05  2.79401471e+05  7.60e-02 3.40e+00  7.36e-01     2s
   8   3.43535378e+05  2.95251188e+05  5.59e-02 2.14e+00  4.91e-01     2s
   9   3.40820558e+05  3.04742761e+05  4.90e-02 1.40e+00  3.61e-01     2s
  10   3.36090903e+05  3.08145733e+05  3.81e-02 1.05e+00  2.79e-01     2s
  11   3.32773567e+05  3.12202241e+05  3.03e-02 6.67e-01  2.04e-01     2s
  12   3.31340633e+05  3.14274037e+05  2.70e-02 5.22e-01  1.67e-01     2s
  13   3.29542135e+05  3.15380611e+05  2.30e-02 4.21e-01  1.38e-01     2s
  14   3.27286139e+05  3.16741976e+05  1.80e-02 3.12e-01  1.02e-01     2s
  15   3.25625805e+05  3.17782324e+05  1.38e-02 2.17e-01  7.58e-02     2s
  16   3.24169267e+05  3.18001227e+05  1.05e-02 1.91e-01  5.99e-02     2s
  17   3.23746155e+05  3.18296888e+05  9.49e-03 1.62e-01  5.28e-02     2s
  18   3.23399760e+05  3.18440933e+05  8.66e-03 1.47e-01  4.80e-02     2s
  19   3.22736226e+05  3.18718532e+05  7.02e-03 1.17e-01  3.89e-02     2s
  20   3.22440087e+05  3.18869745e+05  6.32e-03 1.01e-01  3.45e-02     2s
  21   3.21912501e+05  3.18995372e+05  5.02e-03 8.79e-02  2.83e-02     3s
  22   3.21638167e+05  3.19269570e+05  4.35e-03 6.07e-02  2.28e-02     3s
  23   3.21333691e+05  3.19338287e+05  3.58e-03 5.38e-02  1.92e-02     3s
  24   3.21239477e+05  3.19385760e+05  3.34e-03 4.89e-02  1.79e-02     3s
  25   3.21053680e+05  3.19498877e+05  2.87e-03 3.71e-02  1.49e-02     3s
  26   3.20891450e+05  3.19585261e+05  2.47e-03 2.79e-02  1.25e-02     3s
  27   3.20601009e+05  3.19628836e+05  1.78e-03 2.32e-02  9.35e-03     3s
  28   3.20459367e+05  3.19665843e+05  1.43e-03 1.94e-02  7.64e-03     3s
  29   3.20264240e+05  3.19711206e+05  9.60e-04 1.48e-02  5.35e-03     3s
  30   3.20168331e+05  3.19742543e+05  7.24e-04 1.15e-02  4.13e-03     3s
  31   3.20074789e+05  3.19767007e+05  4.99e-04 8.78e-03  3.00e-03     3s
  32   3.20026326e+05  3.19778362e+05  3.86e-04 7.66e-03  2.43e-03     3s
  33   3.19998198e+05  3.19815647e+05  3.19e-04 4.08e-03  1.76e-03     3s
  34   3.19933844e+05  3.19826623e+05  1.69e-04 2.97e-03  1.05e-03     3s
  35   3.19900818e+05  3.19843263e+05  9.06e-05 1.44e-03  5.63e-04     3s
  36   3.19887897e+05  3.19845076e+05  6.17e-05 1.28e-03  4.23e-04     3s

Barrier performed 36 iterations in 3.36 seconds
Barrier solve interrupted - model solved by another algorithm


Solved with dual simplex

Root relaxation: objective 3.198600e+05, 5433 iterations, 2.49 seconds

    Nodes    |    Current Node    |     Objective Bounds      |     Work
 Expl Unexpl |  Obj  Depth IntInf | Incumbent    BestBd   Gap | It/Node Time

     0     0 319860.000    0  937 354135.000 319860.000  9.68%     -    4s
H    0     0                    320328.00000 319860.000  0.15%     -    4s
H    0     0                    320327.00000 319860.000  0.15%     -    4s
H    0     0                    320310.00000 319860.000  0.14%     -    4s
     0     0 319875.750    0  947 320310.000 319875.750  0.14%     -    6s
H    0     0                    320289.00000 319875.750  0.13%     -    7s
     0     0 319875.750    0  858 320289.000 319875.750  0.13%     -    7s
H    0     0                    320278.00000 319875.750  0.13%     -    7s
     0     0 319882.723    0 1031 320278.000 319882.723  0.12%     -    7s
H    0     0                    320276.00000 319882.723  0.12%     -    7s
     0     0 319882.797    0 1026 320276.000 319882.797  0.12%     -    7s
H    0     0                    319961.00000 319882.797  0.02%     -    8s
H    0     0                    319936.00000 319882.797  0.02%     -    8s

Cutting planes:
  Gomory: 3
  Zero half: 57

Explored 1 nodes (8901 simplex iterations) in 8.08 seconds
Thread count was 16 (of 16 available processors)

Solution count 10: 319936 319961 320276 ... 354135

Optimal solution found (tolerance 1.00e-04)
Best objective 3.199360000000e+05, best bound 3.199190000000e+05, gap 0.0053%

User-callback calls 1104, time in user-callback 0.02 sec
Optimal Result: runtime=7.73sec; objective=319936; gap=0.0001%
Solution written to /autofs/unityaccount/cremi/mdeboute/Bureau/multi-period-flp/solution//instMulti_I30_J250_T4_1_result.txt
